
******************************************************************************
This program contains Ipopt, a library for large-scale nonlinear optimization.
 Ipopt is released as open source code under the Eclipse Public License (EPL).
         For more information visit http://projects.coin-or.org/Ipopt
******************************************************************************

This is Ipopt version 3.12.13, running with linear solver mumps.
NOTE: Other linear solvers might be more efficient (see Ipopt documentation).

Number of nonzeros in equality constraint Jacobian...:      365
Number of nonzeros in inequality constraint Jacobian.:      104
Number of nonzeros in Lagrangian Hessian.............:      144

Total number of variables............................:       85
                     variables with only lower bounds:       16
                variables with lower and upper bounds:       41
                     variables with only upper bounds:        0
Total number of equality constraints.................:       82
Total number of inequality constraints...............:       28
        inequality constraints with only lower bounds:        0
   inequality constraints with lower and upper bounds:        0
        inequality constraints with only upper bounds:       28

iter    objective    inf_pr   inf_du lg(mu)  ||d||  lg(rg) alpha_du alpha_pr  ls
   0  1.9178242e+03 7.85e-06 1.00e+02   0.0 0.00e+00    -  0.00e+00 0.00e+00   0
   1  1.9178225e+03 7.85e-06 1.00e+02  -0.3 4.23e+00    -  1.91e-06 2.39e-06f  1
   2  1.8784416e+03 5.11e-04 5.00e+08  -0.3 1.33e+00    -  2.55e-04 1.16e-01f  1
   3  1.8806160e+03 4.96e-04 5.88e+08   1.8 9.92e-01   4.0 1.00e+00 4.62e-02f  2
   4  1.8403120e+03 6.48e-04 2.32e+10   1.8 5.93e-01    -  1.11e-01 8.20e-01h  1
   5  1.8322980e+03 6.49e-04 2.36e+10   2.5 6.31e-01    -  1.00e+00 5.79e-02f  2
   6  1.8215984e+03 6.22e-04 2.41e+10   2.7 6.18e-01    -  1.00e+00 1.09e-01h  3
   7  1.8025597e+03 6.28e-04 2.20e+10   2.7 6.09e-01    -  1.00e+00 2.21e-01h  2
   8  1.7812696e+03 6.44e-04 2.05e+10   2.6 6.72e-01    -  1.00e+00 2.77e-01h  1
   9  1.7812254e+03 6.42e-04 2.07e+10   2.1 4.90e-01    -  3.39e-01 2.59e-03h  1
iter    objective    inf_pr   inf_du lg(mu)  ||d||  lg(rg) alpha_du alpha_pr  ls
  10  1.7848959e+03 4.14e-06 1.61e+14   0.6 6.11e-01   4.4 1.20e-01 1.00e+00h  1
  11  1.7853124e+03 4.11e-06 1.58e+14   3.1 4.08e-01   5.8 1.00e+00 1.59e-02h  1
  12  1.7853123e+03 4.11e-06 6.75e+12   4.0 1.70e-07  19.6 1.00e+00 1.00e+00f  1
  13  1.7853123e+03 4.11e-06 5.65e+11   3.9 1.28e-08  19.1 9.18e-01 1.00e+00f  1
  14  1.7853123e+03 4.11e-06 1.26e+12   3.8 3.56e-08  19.5 1.00e+00 1.00e+00f  1
  15  1.7853123e+03 4.11e-06 1.47e+12   3.1 1.55e-08  20.0 9.04e-01 1.00e+00f  1
  16  1.7853124e+03 4.11e-06 6.57e+12   2.4 2.09e-07  19.5 6.62e-01 1.00e+00f  1
  17  1.7853124e+03 4.11e-06 7.92e+12   1.7 1.11e-07  19.9 9.95e-01 5.00e-01f  2
  18  1.7853127e+03 4.11e-06 6.22e+13   1.0 2.23e-06  19.4 1.40e-01 1.00e+00f  1
  19r 1.7853127e+03 4.11e-06 1.00e+03   0.3 0.00e+00  19.9 0.00e+00 4.77e-07R 22
iter    objective    inf_pr   inf_du lg(mu)  ||d||  lg(rg) alpha_du alpha_pr  ls
  20r 1.7853152e+03 1.48e-05 1.00e+01  -4.8 2.15e-03    -  9.90e-01 9.79e-01f  1
  21r 1.7853165e+03 4.01e-07 1.31e-01  -6.8 7.02e-05    -  9.90e-01 9.86e-01f  1
  22  1.7853166e+03 4.01e-07 1.86e+07  -0.1 2.07e+00    -  7.69e-01 5.98e-07f  2
  23  1.7856858e+03 3.95e-07 2.36e+08   0.9 1.19e+00    -  1.00e+00 1.45e-02h  3
  24  1.7856209e+03 3.94e-07 2.86e+08   0.6 4.55e-01    -  1.00e+00 1.78e-03h  7
  25  1.7855534e+03 3.93e-07 2.37e+08  -0.3 4.42e-01    -  1.00e+00 1.81e-03h  7
  26  1.7855492e+03 3.93e-07 1.75e+08  -0.5 4.34e-01    -  1.00e+00 1.14e-04h 11
  27  1.7855450e+03 3.93e-07 1.72e+08  -0.2 4.44e-01    -  1.00e+00 1.10e-04h 11
  28  1.7855408e+03 3.93e-07 1.60e+10   2.7 4.39e-01    -  1.00e+00 1.11e-04h 11
  29  1.7855366e+03 3.93e-07 2.30e+10   2.6 4.36e-01    -  1.00e+00 1.11e-04h 11
iter    objective    inf_pr   inf_du lg(mu)  ||d||  lg(rg) alpha_du alpha_pr  ls
  30  1.7855345e+03 3.93e-07 1.90e+11   2.5 7.38e-01    -  1.00e+00 3.31e-05h 12
  31  1.7855346e+03 3.97e-07 1.12e+12   4.6 4.56e-08  19.4 9.91e-01 1.00e+00f  1
  32  1.7855044e+03 3.95e-07 1.47e+12   4.6 2.53e-01    -  1.00e+00 5.12e-03h  8
  33  1.7854715e+03 3.94e-07 2.10e+12   4.6 2.45e-01    -  1.00e+00 3.43e-03h  8
  34  1.7854549e+03 3.93e-07 2.76e+12   4.6 2.43e-01    -  1.00e+00 1.68e-03h  9
  35  1.7854384e+03 3.93e-07 3.30e+12   4.6 2.44e-01    -  1.00e+00 1.47e-03h  9
  36  1.7854220e+03 3.92e-07 3.71e+12   4.6 2.43e-01    -  1.00e+00 1.59e-03h  9
WARNING: Problem in step computation; switching to emergency mode.
  37r 1.7854220e+03 3.92e-07 1.00e+03   4.6 0.00e+00  19.8 0.00e+00 0.00e+00R  1
  38r 1.7854377e+03 1.09e-02 1.00e+01  -1.6 3.89e+01    -  9.90e-01 9.90e-01f  1
  39r 1.7854383e+03 1.09e-02 9.90e+02  -3.6 1.00e-03   6.0 9.90e-01 1.00e+00f  1
iter    objective    inf_pr   inf_du lg(mu)  ||d||  lg(rg) alpha_du alpha_pr  ls
  40r 1.7857378e+03 1.16e-02 1.31e+03  -1.4 3.93e-03   5.5 1.00e+00 1.00e+00f  1
  41r 1.7857465e+03 1.42e-02 1.01e+03  -1.1 9.10e-03   5.0 1.00e+00 1.00e+00f  1
  42r 1.7857468e+03 1.42e-02 1.00e+03  -3.0 3.38e-03   5.5 1.00e+00 1.00e+00f  1
  43r 1.7857468e+03 1.42e-02 1.00e+03  -5.0 1.27e-03   5.9 1.00e+00 1.00e+00f  1
  44r 1.7857468e+03 1.42e-02 1.00e+03  -6.9 3.80e-03   5.4 1.00e+00 1.00e+00f  1
  45r 1.7857468e+03 1.42e-02 1.00e+03  -8.6 1.42e-03   5.8 1.00e+00 1.00e+00f  1
  46r 1.7857468e+03 1.42e-02 1.00e+03  -9.0 4.27e-03   5.4 1.00e+00 1.00e+00f  1
  47r 1.7857468e+03 1.42e-02 1.00e+03  -9.0 1.60e-03   5.8 1.00e+00 1.00e+00f  1
  48r 1.7857468e+03 1.42e-02 1.00e+03  -9.0 4.81e-03   5.3 1.00e+00 1.00e+00f  1
  49r 1.7857468e+03 1.42e-02 1.00e+03  -9.0 1.80e-03   5.7 1.00e+00 1.00e+00f  1
iter    objective    inf_pr   inf_du lg(mu)  ||d||  lg(rg) alpha_du alpha_pr  ls
  50r 1.7857468e+03 1.42e-02 1.00e+03  -9.0 5.41e-03   5.3 1.00e+00 1.00e+00f  1
  51r 1.7857468e+03 1.42e-02 1.00e+03  -9.0 2.03e-03   5.7 1.00e+00 1.00e+00f  1
  52r 1.7857468e+03 1.42e-02 1.00e+03  -9.0 7.60e-04   6.1 1.00e+00 1.00e+00f  1
  53r 1.7857468e+03 1.42e-02 1.00e+03  -9.0 2.28e-03   5.6 1.00e+00 1.00e+00f  1
  54r 1.7857468e+03 1.42e-02 1.00e+03  -9.0 8.55e-04   6.1 1.00e+00 1.00e+00f  1
  55r 1.7857468e+03 1.42e-02 1.00e+03  -9.0 2.57e-03   5.6 1.00e+00 1.00e+00f  1
  56r 1.7857468e+03 1.42e-02 1.00e+03  -9.0 9.62e-04   6.0 1.00e+00 1.00e+00f  1
  57r 1.7857468e+03 1.42e-02 1.00e+03  -9.0 2.89e-03   5.5 1.00e+00 1.00e+00f  1
  58r 1.7857468e+03 1.42e-02 1.00e+03  -9.0 1.08e-03   6.0 1.00e+00 1.00e+00f  1
  59r 1.7857468e+03 1.42e-02 1.00e+03  -9.0 3.25e-03   5.5 1.00e+00 1.00e+00f  1
iter    objective    inf_pr   inf_du lg(mu)  ||d||  lg(rg) alpha_du alpha_pr  ls
  60r 1.7857468e+03 1.42e-02 1.00e+03  -9.0 1.22e-03   5.9 1.00e+00 1.00e+00f  1
  61r 1.7857468e+03 1.42e-02 1.00e+03  -9.0 3.65e-03   5.4 1.00e+00 1.00e+00f  1
  62r 1.7857468e+03 1.42e-02 1.00e+03  -9.0 1.37e-03   5.9 1.00e+00 1.00e+00f  1
  63r 1.7857468e+03 1.42e-02 1.00e+03  -9.0 4.11e-03   5.4 1.00e+00 1.00e+00f  1
  64r 1.7857468e+03 1.42e-02 1.00e+03  -9.0 1.54e-03   5.8 1.00e+00 1.00e+00f  1
  65r 1.7857468e+03 1.42e-02 1.00e+03  -9.0 4.62e-03   5.3 1.00e+00 1.00e+00f  1
  66r 1.7857468e+03 1.42e-02 1.00e+03  -9.0 1.73e-03   5.8 1.00e+00 1.00e+00f  1
  67r 1.7857468e+03 1.42e-02 1.00e+03  -9.0 5.20e-03   5.3 1.00e+00 1.00e+00f  1
  68r 1.7857468e+03 1.42e-02 1.00e+03  -9.0 1.95e-03   5.7 1.00e+00 1.00e+00f  1
  69r 1.7857468e+03 1.42e-02 1.00e+03  -9.0 5.85e-03   5.2 1.00e+00 1.00e+00f  1
iter    objective    inf_pr   inf_du lg(mu)  ||d||  lg(rg) alpha_du alpha_pr  ls
  70r 1.7857468e+03 1.42e-02 1.00e+03  -9.0 2.19e-03   5.7 1.00e+00 1.00e+00f  1
  71r 1.7857468e+03 1.42e-02 1.00e+03  -9.0 8.23e-04   6.1 1.00e+00 1.00e+00f  1
  72r 1.7857468e+03 1.42e-02 1.00e+03  -9.0 2.47e-03   5.6 1.00e+00 1.00e+00f  1
  73r 1.7857468e+03 1.42e-02 1.00e+03  -9.0 9.26e-04   6.0 1.00e+00 1.00e+00f  1
  74r 1.7857468e+03 1.42e-02 1.00e+03  -9.0 2.78e-03   5.6 1.00e+00 1.00e+00f  1
  75r 1.7857468e+03 1.42e-02 1.00e+03  -9.0 1.04e-03   6.0 1.00e+00 1.00e+00f  1
  76r 1.7857468e+03 1.42e-02 1.00e+03  -9.0 3.12e-03   5.5 1.00e+00 1.00e+00f  1
  77r 1.7857468e+03 1.42e-02 1.00e+03  -9.0 1.17e-03   5.9 1.00e+00 1.00e+00f  1
  78r 1.7857468e+03 1.42e-02 1.00e+03  -9.0 3.52e-03   5.5 1.00e+00 1.00e+00f  1
  79r 1.7857468e+03 1.42e-02 1.00e+03  -9.0 1.32e-03   5.9 1.00e+00 1.00e+00f  1
iter    objective    inf_pr   inf_du lg(mu)  ||d||  lg(rg) alpha_du alpha_pr  ls
  80r 1.7857468e+03 1.42e-02 1.00e+03  -9.0 3.95e-03   5.4 1.00e+00 1.00e+00f  1
  81r 1.7857468e+03 1.42e-02 1.00e+03  -9.0 1.48e-03   5.8 1.00e+00 1.00e+00f  1
  82r 1.7857468e+03 1.42e-02 1.00e+03  -9.0 4.45e-03   5.4 1.00e+00 1.00e+00f  1
  83r 1.7857468e+03 1.42e-02 1.00e+03  -9.0 1.67e-03   5.8 1.00e+00 1.00e+00f  1
  84r 1.7857468e+03 1.42e-02 1.00e+03  -9.0 5.00e-03   5.3 1.00e+00 1.00e+00f  1
  85r 1.7857468e+03 1.42e-02 1.00e+03  -9.0 1.88e-03   5.7 1.00e+00 1.00e+00f  1
  86r 1.7857468e+03 1.42e-02 1.00e+03  -9.0 5.63e-03   5.2 1.00e+00 1.00e+00f  1
  87r 1.7857468e+03 1.42e-02 1.00e+03  -9.0 2.11e-03   5.7 1.00e+00 1.00e+00f  1
  88r 1.7857468e+03 1.42e-02 1.00e+03  -9.0 7.92e-04   6.1 1.00e+00 1.00e+00f  1
  89r 1.7857468e+03 1.42e-02 1.00e+03  -9.0 2.38e-03   5.6 1.00e+00 1.00e+00f  1
iter    objective    inf_pr   inf_du lg(mu)  ||d||  lg(rg) alpha_du alpha_pr  ls
  90r 1.7857468e+03 1.42e-02 1.00e+03  -9.0 8.91e-04   6.1 1.00e+00 1.00e+00f  1
  91r 1.7857468e+03 1.42e-02 1.00e+03  -9.0 2.67e-03   5.6 1.00e+00 1.00e+00f  1
  92r 1.7857468e+03 1.42e-02 1.00e+03  -9.0 1.00e-03   6.0 1.00e+00 1.00e+00f  1
  93r 1.7857468e+03 1.42e-02 1.00e+03  -9.0 3.01e-03   5.5 1.00e+00 1.00e+00f  1
  94r 1.7857468e+03 1.42e-02 1.00e+03  -9.0 1.13e-03   5.9 1.00e+00 1.00e+00f  1
  95r 1.7857468e+03 1.42e-02 1.00e+03  -9.0 3.38e-03   5.5 1.00e+00 1.00e+00f  1
  96r 1.7857468e+03 1.42e-02 1.00e+03  -9.0 1.27e-03   5.9 1.00e+00 1.00e+00f  1
  97r 1.7857468e+03 1.42e-02 1.00e+03  -9.0 3.80e-03   5.4 1.00e+00 1.00e+00f  1
  98r 1.7857468e+03 1.42e-02 1.00e+03  -9.0 1.43e-03   5.8 1.00e+00 1.00e+00f  1
  99r 1.7857468e+03 1.42e-02 1.00e+03  -9.0 4.28e-03   5.4 1.00e+00 1.00e+00f  1
iter    objective    inf_pr   inf_du lg(mu)  ||d||  lg(rg) alpha_du alpha_pr  ls
 100r 1.7857468e+03 1.42e-02 1.00e+03  -9.0 1.61e-03   5.8 1.00e+00 1.00e+00f  1
 101r 1.7857468e+03 1.42e-02 1.00e+03  -9.0 4.82e-03   5.3 1.00e+00 1.00e+00f  1
 102r 1.7857468e+03 1.42e-02 1.00e+03  -9.0 1.81e-03   5.7 1.00e+00 1.00e+00f  1
 103r 1.7857468e+03 1.42e-02 1.00e+03  -9.0 5.42e-03   5.3 1.00e+00 1.00e+00f  1
 104r 1.7857468e+03 1.42e-02 1.00e+03  -9.0 2.03e-03   5.7 1.00e+00 1.00e+00f  1
 105r 1.7857468e+03 1.42e-02 1.00e+03  -9.0 7.62e-04   6.1 1.00e+00 1.00e+00f  1
 106r 1.7857468e+03 1.42e-02 1.00e+03  -9.0 2.29e-03   5.6 1.00e+00 1.00e+00f  1
 107r 1.7857468e+03 1.42e-02 1.00e+03  -9.0 8.57e-04   6.1 1.00e+00 1.00e+00f  1
 108r 1.7857468e+03 1.42e-02 1.00e+03  -9.0 2.57e-03   5.6 1.00e+00 1.00e+00f  1
 109r 1.7857468e+03 1.42e-02 1.00e+03  -9.0 9.64e-04   6.0 1.00e+00 1.00e+00f  1
iter    objective    inf_pr   inf_du lg(mu)  ||d||  lg(rg) alpha_du alpha_pr  ls
 110r 1.7857468e+03 1.42e-02 1.00e+03  -9.0 2.89e-03   5.5 1.00e+00 1.00e+00f  1
 111r 1.7857468e+03 1.42e-02 1.00e+03  -9.0 1.08e-03   6.0 1.00e+00 1.00e+00f  1
 112r 1.7857468e+03 1.42e-02 1.00e+03  -9.0 3.25e-03   5.5 1.00e+00 1.00e+00f  1
 113r 1.7857468e+03 1.42e-02 1.00e+03  -9.0 1.22e-03   5.9 1.00e+00 1.00e+00f  1
 114r 1.7857468e+03 1.42e-02 1.00e+03  -9.0 3.66e-03   5.4 1.00e+00 1.00e+00f  1
 115r 1.7857468e+03 1.42e-02 1.00e+03  -9.0 1.37e-03   5.9 1.00e+00 1.00e+00f  1
 116r 1.7857468e+03 1.42e-02 1.00e+03  -9.0 4.12e-03   5.4 1.00e+00 1.00e+00f  1
 117r 1.7857468e+03 1.42e-02 1.00e+03  -9.0 1.54e-03   5.8 1.00e+00 1.00e+00f  1
 118r 1.7857468e+03 1.42e-02 1.00e+03  -9.0 4.63e-03   5.3 1.00e+00 1.00e+00f  1
 119r 1.7857468e+03 1.42e-02 1.00e+03  -9.0 1.74e-03   5.8 1.00e+00 1.00e+00f  1
iter    objective    inf_pr   inf_du lg(mu)  ||d||  lg(rg) alpha_du alpha_pr  ls
 120r 1.7857468e+03 1.42e-02 1.00e+03  -9.0 5.21e-03   5.3 1.00e+00 1.00e+00f  1
 121r 1.7857468e+03 1.42e-02 1.00e+03  -9.0 1.95e-03   5.7 1.00e+00 1.00e+00f  1
 122r 1.7857468e+03 1.42e-02 1.00e+03  -9.0 5.86e-03   5.2 1.00e+00 1.00e+00f  1
 123r 1.7857468e+03 1.42e-02 1.00e+03  -9.0 2.20e-03   5.7 1.00e+00 1.00e+00f  1
 124r 1.7857468e+03 1.42e-02 1.00e+03  -9.0 8.25e-04   6.1 1.00e+00 1.00e+00f  1
 125r 1.7857468e+03 1.42e-02 1.00e+03  -9.0 2.47e-03   5.6 1.00e+00 1.00e+00f  1
 126r 1.7857468e+03 1.42e-02 1.00e+03  -9.0 9.28e-04   6.0 1.00e+00 1.00e+00f  1
 127r 1.7857468e+03 1.42e-02 1.00e+03  -9.0 2.78e-03   5.6 1.00e+00 1.00e+00f  1
 128r 1.7857468e+03 1.42e-02 1.00e+03  -9.0 1.04e-03   6.0 1.00e+00 1.00e+00f  1
 129r 1.7857468e+03 1.42e-02 1.00e+03  -9.0 3.13e-03   5.5 1.00e+00 1.00e+00f  1
iter    objective    inf_pr   inf_du lg(mu)  ||d||  lg(rg) alpha_du alpha_pr  ls
 130r 1.7857468e+03 1.42e-02 1.00e+03  -9.0 1.17e-03   5.9 1.00e+00 1.00e+00f  1
 131r 1.7857468e+03 1.42e-02 1.00e+03  -9.0 3.52e-03   5.5 1.00e+00 1.00e+00f  1
 132r 1.7857468e+03 1.42e-02 1.00e+03  -9.0 1.32e-03   5.9 1.00e+00 1.00e+00f  1
 133r 1.7857468e+03 1.42e-02 1.00e+03  -9.0 3.96e-03   5.4 1.00e+00 1.00e+00f  1
 134r 1.7857468e+03 1.42e-02 1.00e+03  -9.0 1.49e-03   5.8 1.00e+00 1.00e+00f  1
 135r 1.7857468e+03 1.42e-02 1.00e+03  -9.0 4.46e-03   5.4 1.00e+00 1.00e+00f  1
 136r 1.7857468e+03 1.42e-02 1.00e+03  -9.0 1.67e-03   5.8 1.00e+00 1.00e+00f  1
 137r 1.7857468e+03 1.42e-02 1.00e+03  -9.0 5.02e-03   5.3 1.00e+00 1.00e+00f  1
 138r 1.7857468e+03 1.42e-02 1.00e+03  -9.0 1.88e-03   5.7 1.00e+00 1.00e+00f  1
 139r 1.7857468e+03 1.42e-02 1.00e+03  -9.0 5.64e-03   5.2 1.00e+00 1.00e+00f  1
iter    objective    inf_pr   inf_du lg(mu)  ||d||  lg(rg) alpha_du alpha_pr  ls
 140r 1.7857468e+03 1.42e-02 1.00e+03  -9.0 2.12e-03   5.7 1.00e+00 1.00e+00f  1
 141r 1.7857468e+03 1.42e-02 1.00e+03  -9.0 7.93e-04   6.1 1.00e+00 1.00e+00f  1
 142r 1.7857468e+03 1.42e-02 1.00e+03  -9.0 2.38e-03   5.6 1.00e+00 1.00e+00f  1
 143r 1.7857468e+03 1.42e-02 1.00e+03  -9.0 8.93e-04   6.0 1.00e+00 1.00e+00f  1
 144r 1.7857468e+03 1.42e-02 1.00e+03  -9.0 2.68e-03   5.6 1.00e+00 1.00e+00f  1
 145r 1.7857468e+03 1.42e-02 1.00e+03  -9.0 1.00e-03   6.0 1.00e+00 1.00e+00f  1
 146r 1.7857468e+03 1.42e-02 1.00e+03  -9.0 3.01e-03   5.5 1.00e+00 1.00e+00f  1
 147r 1.7857468e+03 1.42e-02 1.00e+03  -9.0 1.13e-03   5.9 1.00e+00 1.00e+00f  1
 148r 1.7857468e+03 1.42e-02 1.00e+03  -9.0 3.39e-03   5.5 1.00e+00 1.00e+00f  1
 149r 1.7857468e+03 1.42e-02 1.00e+03  -9.0 1.27e-03   5.9 1.00e+00 1.00e+00f  1
iter    objective    inf_pr   inf_du lg(mu)  ||d||  lg(rg) alpha_du alpha_pr  ls
 150r 1.7857468e+03 1.42e-02 1.00e+03  -9.0 3.81e-03   5.4 1.00e+00 1.00e+00f  1
 151r 1.7857468e+03 1.42e-02 1.00e+03  -9.0 1.43e-03   5.8 1.00e+00 1.00e+00f  1
 152r 1.7857468e+03 1.42e-02 1.00e+03  -9.0 4.29e-03   5.4 1.00e+00 1.00e+00f  1
 153r 1.7857468e+03 1.42e-02 1.00e+03  -9.0 1.61e-03   5.8 1.00e+00 1.00e+00f  1
 154r 1.7857468e+03 1.42e-02 1.00e+03  -9.0 4.83e-03   5.3 1.00e+00 1.00e+00f  1
 155r 1.7857468e+03 1.42e-02 1.00e+03  -9.0 1.81e-03   5.7 1.00e+00 1.00e+00f  1
 156r 1.7857468e+03 1.42e-02 1.00e+03  -9.0 5.43e-03   5.3 1.00e+00 1.00e+00f  1
 157r 1.7857468e+03 1.42e-02 1.00e+03  -9.0 2.04e-03   5.7 1.00e+00 1.00e+00f  1
 158r 1.7857468e+03 1.42e-02 1.00e+03  -9.0 7.63e-04   6.1 1.00e+00 1.00e+00f  1
 159r 1.7857468e+03 1.42e-02 1.00e+03  -9.0 2.29e-03   5.6 1.00e+00 1.00e+00f  1
iter    objective    inf_pr   inf_du lg(mu)  ||d||  lg(rg) alpha_du alpha_pr  ls
 160r 1.7857468e+03 1.42e-02 1.00e+03  -9.0 8.59e-04   6.1 1.00e+00 1.00e+00f  1
 161r 1.7857468e+03 1.42e-02 1.00e+03  -9.0 2.58e-03   5.6 1.00e+00 1.00e+00f  1
 162r 1.7857468e+03 1.42e-02 1.00e+03  -9.0 9.66e-04   6.0 1.00e+00 1.00e+00f  1
 163r 1.7857468e+03 1.42e-02 1.00e+03  -9.0 2.90e-03   5.5 1.00e+00 1.00e+00f  1
 164r 1.7857468e+03 1.42e-02 1.00e+03  -9.0 1.09e-03   6.0 1.00e+00 1.00e+00f  1
 165r 1.7857468e+03 1.42e-02 1.00e+03  -9.0 3.26e-03   5.5 1.00e+00 1.00e+00f  1
 166r 1.7857468e+03 1.42e-02 1.00e+03  -9.0 1.22e-03   5.9 1.00e+00 1.00e+00f  1
 167r 1.7857468e+03 1.42e-02 1.00e+03  -9.0 3.67e-03   5.4 1.00e+00 1.00e+00f  1
 168r 1.7857468e+03 1.42e-02 1.00e+03  -9.0 1.38e-03   5.9 1.00e+00 1.00e+00f  1
 169r 1.7857468e+03 1.42e-02 1.00e+03  -9.0 4.13e-03   5.4 1.00e+00 1.00e+00f  1
iter    objective    inf_pr   inf_du lg(mu)  ||d||  lg(rg) alpha_du alpha_pr  ls
 170r 1.7857468e+03 1.42e-02 1.00e+03  -9.0 1.55e-03   5.8 1.00e+00 1.00e+00f  1
 171r 1.7857468e+03 1.42e-02 1.00e+03  -9.0 4.64e-03   5.3 1.00e+00 1.00e+00f  1
 172r 1.7857468e+03 1.42e-02 1.00e+03  -9.0 1.74e-03   5.8 1.00e+00 1.00e+00f  1
 173r 1.7857468e+03 1.42e-02 1.00e+03  -9.0 5.22e-03   5.3 1.00e+00 1.00e+00f  1
 174r 1.7857468e+03 1.42e-02 1.00e+03  -9.0 1.96e-03   5.7 1.00e+00 1.00e+00f  1
 175r 1.7857468e+03 1.42e-02 1.00e+03  -9.0 5.88e-03   5.2 1.00e+00 1.00e+00f  1
 176r 1.7857468e+03 1.42e-02 1.00e+03  -9.0 2.20e-03   5.7 1.00e+00 1.00e+00f  1
 177r 1.7857468e+03 1.42e-02 1.00e+03  -9.0 8.26e-04   6.1 1.00e+00 1.00e+00f  1
 178r 1.7857468e+03 1.42e-02 1.00e+03  -9.0 2.48e-03   5.6 1.00e+00 1.00e+00f  1
 179r 1.7857468e+03 1.42e-02 1.00e+03  -9.0 9.30e-04   6.0 1.00e+00 1.00e+00f  1
iter    objective    inf_pr   inf_du lg(mu)  ||d||  lg(rg) alpha_du alpha_pr  ls
 180r 1.7857468e+03 1.42e-02 1.00e+03  -9.0 2.79e-03   5.6 1.00e+00 1.00e+00f  1
 181r 1.7857468e+03 1.42e-02 1.00e+03  -9.0 1.05e-03   6.0 1.00e+00 1.00e+00f  1
 182r 1.7857468e+03 1.42e-02 1.00e+03  -9.0 3.14e-03   5.5 1.00e+00 1.00e+00f  1
 183r 1.7857468e+03 1.42e-02 1.00e+03  -9.0 1.18e-03   5.9 1.00e+00 1.00e+00f  1
 184r 1.7857468e+03 1.42e-02 1.00e+03  -9.0 3.53e-03   5.5 1.00e+00 1.00e+00f  1
 185r 1.7857468e+03 1.42e-02 1.00e+03  -9.0 1.32e-03   5.9 1.00e+00 1.00e+00f  1
 186r 1.7857468e+03 1.42e-02 1.00e+03  -9.0 3.97e-03   5.4 1.00e+00 1.00e+00f  1
 187r 1.7857468e+03 1.42e-02 1.00e+03  -9.0 1.49e-03   5.8 1.00e+00 1.00e+00f  1
 188r 1.7857468e+03 1.42e-02 1.00e+03  -9.0 4.47e-03   5.3 1.00e+00 1.00e+00f  1
 189r 1.7857468e+03 1.42e-02 1.00e+03  -9.0 1.68e-03   5.8 1.00e+00 1.00e+00f  1
iter    objective    inf_pr   inf_du lg(mu)  ||d||  lg(rg) alpha_du alpha_pr  ls
 190r 1.7857468e+03 1.42e-02 1.00e+03  -9.0 5.03e-03   5.3 1.00e+00 4.66e-01f  1
 191r 1.7857468e+03 1.42e-02 1.00e+03  -9.0 1.88e-03   5.7 1.00e+00 1.24e-02f  1
 192r 1.7857468e+03 1.42e-02 1.00e+03  -9.0 5.66e-03   5.2 1.00e+00 4.15e-05f  1
 193r 1.7857468e+03 1.42e-02 1.00e+03  -9.0 2.36e-03   5.7 1.00e+00 1.07e-03f  1
 194r 1.7857471e+03 1.42e-02 1.00e+03  -9.0 8.78e-04   6.1 1.00e+00 1.75e-02f  1
 195r 1.7857481e+03 1.42e-02 1.00e+03  -9.0 2.64e-03   5.6 1.00e+00 2.16e-02f  1
 196r 1.7857505e+03 1.42e-02 1.01e+03  -4.5 1.01e-03   6.0 1.00e+00 4.08e-02f  1
 197r 1.7857567e+03 1.42e-02 1.01e+03  -5.8 3.04e-03   5.6 1.00e+00 3.21e-02f  1
 198r 1.7857588e+03 1.42e-02 1.02e+03  -6.0 1.14e-03   6.0 1.00e+00 4.67e-02f  1
 199r 1.7857326e+03 1.42e-02 1.02e+03  -5.9 3.48e-03   5.5 1.00e+00 5.22e-02f  1
iter    objective    inf_pr   inf_du lg(mu)  ||d||  lg(rg) alpha_du alpha_pr  ls
 200r 1.7857131e+03 1.42e-02 1.03e+03  -3.4 1.28e-03   5.9 1.00e+00 7.67e-02f  1
 201r 1.7856751e+03 1.38e-02 1.02e+03  -5.1 3.78e-03   5.5 1.00e+00 6.66e-02f  1
 202r 1.7856743e+03 1.25e-02 1.01e+03  -4.8 1.35e-03   5.9 1.00e+00 1.16e-01f  1
 203r 1.7857309e+03 2.13e-03 9.94e+02  -4.5 4.33e-03   5.4 1.00e+00 6.82e-02f  1
 204r 1.7857459e+03 1.49e-03 9.46e+02  -4.1 1.35e-03   5.8 1.00e+00 1.47e-01f  1
 205r 1.7856556e+03 1.27e-03 8.40e+02  -4.1 3.77e-03   5.4 1.00e+00 8.67e-02f  1
 206r 1.7857634e+03 1.23e-03 8.44e+02  -3.5 2.27e-02   4.9 1.00e+00 3.11e-02f  1
 207r 1.7858023e+03 1.17e-03 8.28e+02  -1.9 1.74e-02   4.4 1.00e+00 4.84e-02f  1
 208r 1.7858950e+03 1.15e-03 5.29e+02  -7.7 1.95e-02    -  6.27e-01 2.65e-02f  1
 209r 1.7858266e+03 3.70e-04 1.67e+02  -3.4 2.38e-04   3.9 1.00e+00 6.77e-01f  1
iter    objective    inf_pr   inf_du lg(mu)  ||d||  lg(rg) alpha_du alpha_pr  ls
 210r 1.7859018e+03 9.82e-05 1.28e+01  -8.3 8.26e-04    -  8.94e-01 9.24e-01f  1
 211r 1.7859719e+03 1.26e-05 5.58e+00  -9.0 2.52e-04    -  9.79e-01 8.78e-01f  1
 212r 1.8151054e+03 1.47e-06 1.35e+02  -5.6 1.49e-01    -  7.23e-01 9.45e-01f  1
 213r 1.8099335e+03 1.19e-06 6.55e+02  -6.5 1.38e-01    -  9.93e-01 1.92e-01h  1
 214r 1.7915530e+03 2.66e-07 6.52e+01  -6.8 1.08e-01    -  1.00e+00 9.02e-01h  1
 215r 1.7914368e+03 7.44e-08 1.62e+01  -7.1 1.36e-02    -  1.00e+00 9.61e-01h  1
 216r 1.7885024e+03 1.23e-06 1.64e-06  -8.3 4.79e-03    -  1.00e+00 1.00e+00h  1
 217r 1.7876919e+03 1.09e-07 2.47e-07  -9.0 1.18e-03    -  1.00e+00 1.00e+00h  1
 218r 1.7874430e+03 8.94e-10 2.49e-10  -9.0 8.00e-04    -  1.00e+00 1.00e+00h  1
 219  1.7880745e+03 3.70e-07 2.26e+09   1.5 3.41e+01    -  7.25e-01 5.31e-05f  2
iter    objective    inf_pr   inf_du lg(mu)  ||d||  lg(rg) alpha_du alpha_pr  ls
 220  1.8188209e+03 2.62e-05 1.30e+09   0.8 3.95e-01    -  2.05e-01 1.00e+00f  1
 221  1.8206196e+03 6.81e-03 8.55e+08   0.1 1.77e-01   4.0 4.44e-01 1.00e+00H  1
 222  1.8206196e+03 6.81e-03 7.14e+08  -0.6 1.03e-11  19.8 9.93e-01 9.93e-01s 22
 223r 1.8206196e+03 6.81e-03 1.00e+03  -1.3 0.00e+00  19.4 0.00e+00 4.77e-07R 22
 224r 1.8325470e+03 2.91e-03 1.12e+02  -1.8 2.91e-02    -  9.88e-01 6.80e-01f  1
 225r 1.8383130e+03 2.44e-04 2.11e+00  -3.0 2.02e-02    -  1.00e+00 9.86e-01f  1
 226  1.8159087e+03 2.42e-04 3.37e+03  -1.3 9.54e+00    -  1.32e-01 6.08e-03f  1
 227  1.7957168e+03 2.19e-04 1.12e+04  -1.3 2.14e+00    -  3.12e-01 2.03e-02f  1
 228  1.7939563e+03 2.10e-04 2.88e+04  -1.3 4.48e-01    -  6.96e-01 4.06e-02f  1
 229  1.7817101e+03 3.76e-05 9.79e+04  -1.3 4.43e-01    -  9.90e-01 8.21e-01f  1
iter    objective    inf_pr   inf_du lg(mu)  ||d||  lg(rg) alpha_du alpha_pr  ls
 230  1.7813523e+03 3.54e-08 8.58e+05  -1.8 2.60e-01    -  1.00e+00 1.00e+00h  1
 231  1.7814340e+03 1.29e-09 4.50e+01  -1.6 7.15e-02    -  1.00e+00 1.00e+00f  1
 232  1.7817256e+03 1.63e-08 1.94e+00  -1.2 9.84e-02    -  1.00e+00 1.00e+00f  1
 233  1.7816224e+03 2.03e-09 4.50e+05  -1.3 2.05e-01    -  6.08e-01 1.00e+00f  1
 234  1.7812925e+03 2.08e-08 1.86e+06  -2.0 5.00e-01    -  5.48e-01 1.00e+00f  1
 235  1.7812718e+03 1.88e-08 5.23e+05  -2.5 1.18e-01    -  1.00e+00 1.07e-01f  2
 236  1.7812699e+03 1.31e-08 1.45e+05  -2.2 1.00e+00    -  1.00e+00 3.00e-01f  2
 237  1.7812522e+03 1.13e-08 3.11e+05  -1.9 1.72e-01    -  1.00e+00 1.57e-01h  1
 238  1.7812522e+03 1.13e-08 4.65e+06  -4.0 5.99e-13  18.9 1.00e+00 1.00e+00h  1
 239  1.7812522e+03 1.13e-08 3.12e+06 -10.0 1.20e-12  18.4 1.00e+00 1.00e+00h  1
iter    objective    inf_pr   inf_du lg(mu)  ||d||  lg(rg) alpha_du alpha_pr  ls
 240  1.7812522e+03 1.13e-08 4.13e+06 -11.0 5.98e-13  18.8 1.00e+00 1.00e+00h  1
 241  1.7812522e+03 1.12e-08 1.56e+07 -11.0 6.78e-12  18.4 1.00e+00 1.00e+00h  1
 242  1.7812522e+03 1.12e-08 2.15e+07 -11.0 3.51e-12  18.8 1.00e+00 1.00e+00h  1
 243  1.7812522e+03 1.12e-08 1.24e+08 -11.0 6.08e-11  18.3 1.00e+00 1.00e+00h  1
 244  1.7812522e+03 1.12e-08 1.80e+08 -11.0 3.31e-11  18.7 1.00e+00 1.00e+00h  1
 245  1.7812522e+03 1.11e-08 2.59e+09 -11.0 1.42e-09  18.3 1.00e+00 1.00e+00h  1
 246r 1.7812522e+03 1.11e-08 9.99e+02  -6.9 0.00e+00    -  0.00e+00 2.97e-07R  4
 247r 1.7816483e+03 1.95e-08 1.52e+01  -6.9 8.77e-01    -  1.00e+00 9.91e-04f  1
 248r 1.7817030e+03 8.84e-10 1.37e-01  -7.6 1.14e-03    -  9.91e-01 9.92e-01h  1
 249  1.7814470e+03 2.41e-08 9.56e+01 -11.0 5.12e+05    -  1.45e-05 2.00e-09f  1
iter    objective    inf_pr   inf_du lg(mu)  ||d||  lg(rg) alpha_du alpha_pr  ls
 250  1.7813270e+03 2.41e-08 9.56e+01 -11.0 4.56e+00    -  1.03e-01 6.88e-05f  1
 251  1.7812106e+03 2.41e-08 9.56e+01 -11.0 2.32e+00    -  2.32e-02 1.22e-04f  1
 252  1.7812106e+03 4.77e-08 7.05e+02  -9.0 1.56e+00    -  1.29e-01 9.55e-05f  1
 253  1.7812106e+03 4.77e-08 2.07e+10  -6.8 1.63e+00    -  1.00e+00 1.53e-08f  1
 254  1.7812106e+03 4.77e-08 1.27e+07  -3.2 3.56e-12  17.8 9.99e-01 1.00e+00f  1
 255  1.7812106e+03 4.75e-08 1.88e+07  -3.6 9.30e-11  17.3 1.00e+00 1.00e+00f  1
 256  1.7812106e+03 4.75e-08 1.24e+05  -5.6 2.31e-13  17.7 1.00e+00 1.00e+00h  1
 257  1.7812106e+03 4.75e-08 4.51e+05  -5.7 2.51e-12  17.3 1.00e+00 1.00e+00h  1
 258  1.7812106e+03 4.75e-08 4.61e+05  -8.6 1.29e-12  17.7 1.00e+00 6.25e-02h  5

Number of Iterations....: 258

                                   (scaled)                 (unscaled)
Objective...............:   5.9476250481606246e+02    1.7812105590147910e+03
Dual infeasibility......:   4.6123821806980140e+05    1.3813284758109879e+06
Constraint violation....:   4.7491963695023287e-08    4.7491963695023287e-08
Complementarity.........:   3.4582877827480769e-09    1.0356972177739684e-08
Overall NLP error.......:   4.7491963695023287e-08    1.3813284758109879e+06


Number of objective function evaluations             = 510
Number of objective gradient evaluations             = 76
Number of equality constraint evaluations            = 510
Number of inequality constraint evaluations          = 510
Number of equality constraint Jacobian evaluations   = 263
Number of inequality constraint Jacobian evaluations = 263
Number of Lagrangian Hessian evaluations             = 259
Total CPU secs in IPOPT (w/o function evaluations)   =      0.632
Total CPU secs in NLP function evaluations           =      0.039

EXIT: Solved To Acceptable Level.
